ssat_solver_solve2
#level: 3
Abc_NtkNodeNum(s->pNtk): 201  , BDD limit: 10240
Build BDD success
level 2: 83 element
Exist
level 1: 32 element
Random
level 0: 32 element
Exist
c ssat solving in ABC
#var: 147
s SATISFIABLE
  > Upper bound = 1.000000e+00
  > Lower bound = 1.000000e+00
FINISHED CPU 0.00 MEM 0 MAXMEM -1 STALE 0 MAXMEM_RSS -1
real 0.09
user 0.08
sys 0.01
